WARNING: for repeatability, setting FPU to use double precision
============================[ Problem Statistics ]=============================
|                                                                             |
|  Number of variables:           961                                         |
|  Number of clauses:          146909                                         |
|  Parse time:                   0.04 s                                       |
|                                                                             |
============================[ Search Statistics ]==============================
| Conflicts |          ORIGINAL         |          LEARNT          | Progress |
|           |    Vars  Clauses Literals |    Limit  Clauses Lit/Cl |          |
===============================================================================
|       100 |     961   146909   384710 |    53866      100     42 |  0.000 % |
|       250 |     961   146909   384710 |    59253      250     30 |  0.008 % |
|       475 |     961   146909   384710 |    65178      475     28 |  0.008 % |
|       812 |     961   146909   384710 |    71696      812     26 |  0.008 % |
|      1318 |     961   146909   384710 |    78866     1318     26 |  0.008 % |
|      2077 |     961   146909   384710 |    86752     2077     27 |  0.008 % |
|      3216 |     961   146909   384710 |    95428     3216     28 |  0.008 % |
|      4924 |     961   146909   384710 |   104970     4924     29 |  0.008 % |
|      7486 |     961   146909   384710 |   115467     7486     28 |  0.008 % |
|     11330 |     961   146909   384710 |   127014    11330     28 |  0.008 % |
|     17096 |     961   146909   384710 |   139716    17096     29 |  0.000 % |
|     25745 |     961   146909   384710 |   153687    25745     31 |  0.008 % |
|     38719 |     961   146909   384710 |   169056    38719     31 |  0.008 % |
|     58180 |     961   146909   384710 |   185962    58180     31 |  0.008 % |
|     87372 |     960   146609   383932 |   204558    87371     32 |  0.112 % |
|    131161 |     960   146609   383932 |   225014   131160     32 |  0.112 % |
|    196845 |     960   146609   383932 |   247515   196844     33 |  0.112 % |
|    295371 |     960   146609   383932 |   272267    69939     34 |  0.112 % |
|    443160 |     960   146609   383932 |   299494   217728     36 |  0.112 % |
|    664843 |     960   146609   383932 |   329443   167507     36 |  0.112 % |
|    997368 |     960   146609   383932 |   362387   199294     39 |  0.112 % |
|   1496156 |     960   146609   383932 |   398626    38031     31 |  0.112 % |
===============================================================================
restarts              : 4092
conflicts             : 2098267        (7019 /sec)
decisions             : 4098740        (0.00 % random) (13712 /sec)
propagations          : 304266685      (1017887 /sec)
conflict literals     : 81675564       (55.76 % deleted)
Memory used           : 145.00 MB
CPU time              : 298.92 s

INDETERMINATE
